CVEs/CVE-2016-4493.smt2
(set-logic QF_AUFBV )
(declare-fun arg00 () (Array (_ BitVec 32) (_ BitVec 8) ) )
(declare-fun model_version () (Array (_ BitVec 32) (_ BitVec 8) ) )
(assert (let ( (?B1 (select  arg00 (_ bv4 32) ) ) (?B2 (select  arg00 (_ bv5 32) ) ) (?B3 (select  arg00 (_ bv7 32) ) ) (?B4 (select  arg00 (_ bv6 32) ) ) (?B5 (select  arg00 (_ bv9 32) ) ) (?B6 (select  arg00 (_ bv8 32) ) ) (?B7 (select  arg00 (_ bv10 32) ) ) (?B8 (select  arg00 (_ bv12 32) ) ) (?B9 (select  arg00 (_ bv11 32) ) ) (?B10 (select  arg00 (_ bv13 32) ) ) (?B11 (select  arg00 (_ bv15 32) ) ) (?B12 (select  arg00 (_ bv14 32) ) ) (?B13 (select  arg00 (_ bv17 32) ) ) (?B14 (select  arg00 (_ bv16 32) ) ) (?B15 (select  arg00 (_ bv18 32) ) ) (?B16 (select  arg00 (_ bv20 32) ) ) (?B17 (select  arg00 (_ bv19 32) ) ) (?B18 (select  arg00 (_ bv22 32) ) ) (?B19 (select  arg00 (_ bv21 32) ) ) (?B20 (select  arg00 (_ bv23 32) ) ) (?B21 (select  arg00 (_ bv25 32) ) ) (?B22 (select  arg00 (_ bv24 32) ) ) ) (let ( (?B23 ((_ sign_extend 24)  ?B4 ) ) (?B25 ((_ sign_extend 24)  ?B6 ) ) (?B24 ((_ sign_extend 24)  ?B5 ) ) (?B26 ((_ sign_extend 24)  ?B7 ) ) (?B27 ((_ sign_extend 24)  ?B8 ) ) (?B28 ((_ sign_extend 24)  ?B9 ) ) (?B29 ((_ sign_extend 24)  ?B10 ) ) (?B31 ((_ sign_extend 24)  ?B12 ) ) (?B32 ((_ sign_extend 24)  ?B13 ) ) (?B30 ((_ sign_extend 24)  ?B11 ) ) (?B33 ((_ sign_extend 24)  ?B14 ) ) (?B34 ((_ sign_extend 24)  ?B15 ) ) (?B35 ((_ sign_extend 24)  ?B16 ) ) (?B37 ((_ sign_extend 24)  ?B18 ) ) (?B36 ((_ sign_extend 24)  ?B17 ) ) (?B38 ((_ sign_extend 24)  ?B19 ) ) (?B39 ((_ sign_extend 24)  ?B20 ) ) (?B40 ((_ sign_extend 24)  ?B21 ) ) (?B41 ((_ sign_extend 24)  ?B22 ) ) ) (and  (and  (and  (and  (and  (and  (and  (and  (and  (and  (and  (and  (and  (and  (and  (and  (and  (and  (and  (and  (and  (and  (and  (and  (and  (and  (and  (and  (and  (and  (and  (and  (and  (and  (and  (and  (and  (and  (and  (and  (and  (and  (and  (and  (and  (and  (and  (and  (and  (and  (and  (and  (and  (bvsle  (_ bv32 32) ((_ sign_extend 24)  ?B1 ) ) (bvsle  (_ bv32 32) ((_ sign_extend 24)  ?B2 ) ) ) (bvsle  (_ bv32 32) ?B23 ) ) (bvsle  (_ bv32 32) ((_ sign_extend 24)  ?B3 ) ) ) (bvsle  (_ bv32 32) ?B25 ) ) (bvsle  (_ bv32 32) ?B24 ) ) (bvsle  (_ bv32 32) ?B26 ) ) (bvsle  (_ bv32 32) ?B28 ) ) (bvsle  (_ bv32 32) ?B27 ) ) (bvsle  (_ bv32 32) ?B29 ) ) (bvsle  (_ bv32 32) ?B31 ) ) (bvsle  (_ bv32 32) ?B30 ) ) (bvsle  (_ bv32 32) ?B33 ) ) (bvsle  (_ bv32 32) ?B32 ) ) (bvsle  (_ bv32 32) ?B34 ) ) (bvsle  (_ bv32 32) ?B36 ) ) (bvsle  (_ bv32 32) ?B35 ) ) (bvsle  (_ bv32 32) ?B38 ) ) (bvsle  (_ bv32 32) ?B37 ) ) (bvsle  (_ bv32 32) ?B39 ) ) (bvsle  (_ bv32 32) ?B41 ) ) (bvsle  (_ bv32 32) ?B40 ) ) (=  (_ bv1 32) (concat  (select  model_version (_ bv3 32) ) (concat  (select  model_version (_ bv2 32) ) (concat  (select  model_version (_ bv1 32) ) (select  model_version (_ bv0 32) ) ) ) ) ) ) (=  (_ bv95 8) (select  arg00 (_ bv0 32) ) ) ) (=  (_ bv95 8) (select  arg00 (_ bv1 32) ) ) ) (=  (_ bv116 8) (select  arg00 (_ bv2 32) ) ) ) (=  false (=  (_ bv0 8) ?B1 ) ) ) (=  false (=  (_ bv0 8) ?B2 ) ) ) (=  false (=  (_ bv0 8) ?B4 ) ) ) (=  false (=  (_ bv0 8) ?B3 ) ) ) (=  false (=  (_ bv0 8) ?B6 ) ) ) (=  false (=  (_ bv0 8) ?B5 ) ) ) (=  false (=  (_ bv0 8) ?B7 ) ) ) (=  false (=  (_ bv0 8) ?B9 ) ) ) (=  false (=  (_ bv0 8) ?B8 ) ) ) (=  false (=  (_ bv0 8) ?B10 ) ) ) (=  false (=  (_ bv0 8) ?B12 ) ) ) (=  false (=  (_ bv0 8) ?B11 ) ) ) (=  false (=  (_ bv0 8) ?B14 ) ) ) (=  false (=  (_ bv0 8) ?B13 ) ) ) (=  false (=  (_ bv0 8) ?B15 ) ) ) (=  false (=  (_ bv0 8) ?B17 ) ) ) (=  false (=  (_ bv0 8) ?B16 ) ) ) (=  false (=  (_ bv0 8) ?B19 ) ) ) (=  false (=  (_ bv0 8) ?B18 ) ) ) (=  false (=  (_ bv0 8) ?B20 ) ) ) (=  false (=  (_ bv0 8) ?B22 ) ) ) (=  false (=  (_ bv0 8) ?B21 ) ) ) (=  (_ bv50 8) (select  arg00 (_ bv3 32) ) ) ) (bvslt  (_ bv0 32) (bvadd  (_ bv4294967248 32) ?B23 ) ) ) (=  false (=  (_ bv90 8) ?B3 ) ) ) (=  false (=  (_ bv122 8) ?B3 ) ) ) (=  (_ bv95 8) (select  arg00 (_ bv26 32) ) ) ) (=  false (bvsle  (_ bv0 32) (bvadd  (_ bv4294967248 32) (bvadd  (bvmul  (_ bv10 32) (bvadd  (_ bv4294967248 32) (bvadd  (bvmul  (_ bv10 32) (bvadd  (_ bv4294967248 32) (bvadd  (bvmul  (_ bv10 32) (bvadd  (_ bv4294967248 32) (bvadd  (bvmul  (_ bv10 32) (bvadd  (_ bv4294967248 32) (bvadd  (bvmul  (_ bv10 32) (bvadd  (_ bv4294967248 32) (bvadd  (bvmul  (_ bv10 32) (bvadd  (_ bv4294967248 32) (bvadd  (bvmul  (_ bv10 32) (bvadd  (_ bv4294967248 32) (bvadd  (bvmul  (_ bv10 32) (bvadd  (_ bv4294967248 32) (bvadd  (bvmul  (_ bv10 32) (bvadd  (_ bv4294967248 32) (bvadd  (bvmul  (_ bv10 32) (bvadd  (_ bv4294967248 32) (bvadd  (bvmul  (_ bv10 32) (bvadd  (_ bv4294967248 32) (bvadd  (bvmul  (_ bv10 32) (bvadd  (_ bv4294967248 32) (bvadd  (bvmul  (_ bv10 32) (bvadd  (_ bv4294967248 32) (bvadd  (bvmul  (_ bv10 32) (bvadd  (_ bv4294967248 32) (bvadd  (bvmul  (_ bv10 32) (bvadd  (_ bv4294967248 32) (bvadd  (bvmul  (_ bv10 32) (bvadd  (_ bv4294967248 32) (bvadd  (bvmul  (_ bv10 32) (bvadd  (_ bv4294967248 32) ?B25 ) ) ?B24 ) ) ) ?B26 ) ) ) ?B28 ) ) ) ?B27 ) ) ) ?B29 ) ) ) ?B31 ) ) ) ?B30 ) ) ) ?B33 ) ) ) ?B32 ) ) ) ?B34 ) ) ) ?B36 ) ) ) ?B35 ) ) ) ?B38 ) ) ) ?B37 ) ) ) ?B39 ) ) ) ?B41 ) ) ) ?B40 ) ) ) ) ) ) ) )
(check-sat)
(exit)